Ti2 O1
   1.00000000000000
     1.4823164489368248   -2.5674474024536575    0.0000000000000000
     1.4823164489368248    2.5674474024536575    0.0000000000000000
     0.0000000000000000    0.0000000000000000    4.8036474040225290
   Ti   O
     2     1
Direct
  0.3333333333333357  0.6666666666666643  0.7304225458354239
  0.6666666666666643  0.3333333333333357  0.2695774541645761
  0.0000000000000000  0.0000000000000000  0.0000000000000000

  0.00000000E+00  0.00000000E+00  0.00000000E+00
  0.00000000E+00  0.00000000E+00  0.00000000E+00
  0.00000000E+00  0.00000000E+00  0.00000000E+00
