 C  N Co 
 1.0000000000000000
    14.7600002288999992    0.0000000000000000    0.0000000000000000
    -7.3800001143999996   12.7825351581000000    0.0000000000000000
     0.0000000000000000    0.0000000000000000   19.5322325909000014
 C   N   Co 
  66   4   1
Cartesian
  0.0000000000000000  0.0000000000000000  7.5105405154999998
  0.0000737852000000  1.4202675069999999  7.5105405154999998
  2.4600491644000000  0.0000000000000000  7.5105405154999998
  2.4599754824000000  1.4202675069999999  7.5105405154999998
  4.9199509500999996  0.0000000000000000  7.5105405154999998
  4.9200246319999996  1.4202675069999999  7.5105405154999998
  7.3800001143999996  0.0000000000000000  7.5105405154999998
  7.3800737963999996  1.4202675069999999  7.5105405154999998
  9.8400497068000004  0.0000000000000000  7.5105405154999998
  9.8399755969000005  1.4202675069999999  7.5105405154999998
 12.2999506365000002  0.0000000000000000  7.5105405154999998
 12.3000251892999994  1.4202675069999999  7.5105405154999998
 -1.2300245822000000  2.1304650709000001  7.5105405154999998
 -1.2299507894999999  3.5507325651000001  7.5105405154999998
  1.2300245822000000  2.1304650709000001  7.5105405154999998
  1.2299509075999999  3.5507325651000001  7.5105405154999998
  3.6899263679000001  2.1304650709000001  7.5105405154999998
  3.6900000571999998  3.5507325651000001  7.5105405154999998
  6.1499755323000000  2.1304650709000001  7.5105405154999998
  6.1500492215999998  3.5507325651000001  7.5105405154999998
  8.6100251246999999  2.1304650709000001  7.5105405154999998
  8.6099510221000006  3.5507325651000001  7.5105405154999998
 11.0699260542999998  2.1304650709000001  7.5105405154999998
 11.0700006144999996  3.5507325651000001  7.5105405154999998
 -2.4599754749999998  4.2608025082000003  7.5105405154999998
 -2.4599016898000001  5.6810700151000004  7.5105405154999998
  0.0000736893000000  4.2608025082000003  7.5105405154999998
  0.0000000074000000  5.6810700151000004  7.5105405154999998
  2.4599754750999998  4.2608025082000003  7.5105405154999998
  4.9200246394000002  4.2608025082000003  7.5105405154999998
  7.3800742318000001  4.2608025082000003  7.5105405154999998
  7.3800001219000002  5.6810700151000004  7.5105405154999998
  9.8399751615000000  4.2608025082000003  7.5105405154999998
  9.8400497141999992  5.6810700151000004  7.5105405154999998
 -3.6900000571999998  6.3912675790000000  7.5105405154999998
 -3.6899260506000000  7.8115347026000004  7.5105405154999998
 -1.2299508928000000  6.3912675790000000  7.5105405154999998
 -1.2300243533999999  7.8115347026000004  7.5105405154999998
  1.2299508929000000  6.3912675790000000  7.5105405154999998
  1.2300247961999999  7.8115347026000004  7.5105405154999998
  6.1500496495999997  6.3912675790000000  7.5105405154999998
  6.1499757611000003  7.8115347026000004  7.5105405154999998
  8.6099505792999995  6.3912675790000000  7.5105405154999998
  8.6100253534999993  7.8115347026000004  7.5105405154999998
 -4.9200248534000002  8.5217330205999993  7.5105405154999998
 -4.9199508466999999  9.9420001440999997  7.5105405154999998
 -2.4599756890000002  8.5217330205999993  7.5105405154999998
 -2.4600491496000001  9.9420001440999997  7.5105405154999998
 -0.0000739033000000  8.5217330205999993  7.5105405154999998
  0.0000000000000000  9.9420001440999997  7.5105405154999998
  2.4600491644000000  9.9420001440999997  7.5105405154999998
  4.9199509648999999  9.9420001440999997  7.5105405154999998
  7.3799257831000000  8.5217330205999993  7.5105405154999998
  7.3800005572999998  9.9420001440999997  7.5105405154999998
 -6.1499753182000001 10.6520697164999998  7.5105405154999998
 -6.1499017470000004 12.0723375942000004  7.5105405154999998
 -3.6899261539000001 10.6520697164999998  7.5105405154999998
 -3.6900000498000001 12.0723375942000004  7.5105405154999998
 -1.2300243681000000 10.6520697164999998  7.5105405154999998
 -1.2299509002000000 12.0723375942000004  7.5105405154999998
  1.2300247961999999 10.6520697164999998  7.5105405154999998
  1.2300982641000000 12.0723375942000004  7.5105405154999998
  3.6900743885999998 10.6520697164999998  7.5105405154999998
  3.6900000647000000 12.0723375942000004  7.5105405154999998
  6.1499753183000001 10.6520697164999998  7.5105405154999998
  6.1500496570000003 12.0723375942000004  7.5105405154999998
  2.4600491569999998  5.6810700151000004  7.5105405154999998
  4.9200983213000002  5.6810700151000004  7.5105405154999998
  2.4599752610999999  8.5217330205999993  7.5105405154999998
  4.9200248535000002  8.5217330205999993  7.5105405154999998
  3.8600348023000000  6.9434733024000002  7.5322325908999996
