graphite
1.0
+14.7600002289  +0.0000000000  +0.0000000000
-7.3800001144  +12.7825351581  +0.0000000000
+0.0000000000  +0.0000000000  +15.0216920754
C  N  Co
66  4  1
Cartesian
+0.0000000000  +0.0000000000  +7.5105405155
+0.0000737852  +1.4202675070  +7.5105405155
+2.4600491644  +0.0000000000  +7.5105405155
+2.4599754824  +1.4202675070  +7.5105405155
+4.9199509501  +0.0000000000  +7.5105405155
+4.9200246320  +1.4202675070  +7.5105405155
+7.3800001144  +0.0000000000  +7.5105405155
+7.3800737964  +1.4202675070  +7.5105405155
+9.8400497068  +0.0000000000  +7.5105405155
+9.8399755969  +1.4202675070  +7.5105405155
+12.2999506365  +0.0000000000  +7.5105405155
+12.3000251893  +1.4202675070  +7.5105405155
-1.2300245822  +2.1304650709  +7.5105405155
-1.2299507895  +3.5507325651  +7.5105405155
+1.2300245822  +2.1304650709  +7.5105405155
+1.2299509076  +3.5507325651  +7.5105405155
+3.6899263679  +2.1304650709  +7.5105405155
+3.6900000572  +3.5507325651  +7.5105405155
+6.1499755323  +2.1304650709  +7.5105405155
+6.1500492216  +3.5507325651  +7.5105405155
+8.6100251247  +2.1304650709  +7.5105405155
+8.6099510221  +3.5507325651  +7.5105405155
+11.0699260543  +2.1304650709  +7.5105405155
+11.0700006145  +3.5507325651  +7.5105405155
-2.4599754750  +4.2608025082  +7.5105405155
-2.4599016898  +5.6810700151  +7.5105405155
+0.0000736893  +4.2608025082  +7.5105405155
+0.0000000074  +5.6810700151  +7.5105405155
+2.4599754751  +4.2608025082  +7.5105405155
+4.9200246394  +4.2608025082  +7.5105405155
+7.3800742318  +4.2608025082  +7.5105405155
+7.3800001219  +5.6810700151  +7.5105405155
+9.8399751615  +4.2608025082  +7.5105405155
+9.8400497142  +5.6810700151  +7.5105405155
-3.6900000572  +6.3912675790  +7.5105405155
-3.6899260506  +7.8115347026  +7.5105405155
-1.2299508928  +6.3912675790  +7.5105405155
-1.2300243534  +7.8115347026  +7.5105405155
+1.2299508929  +6.3912675790  +7.5105405155
+1.2300247962  +7.8115347026  +7.5105405155
+6.1500496496  +6.3912675790  +7.5105405155
+6.1499757611  +7.8115347026  +7.5105405155
+8.6099505793  +6.3912675790  +7.5105405155
+8.6100253535  +7.8115347026  +7.5105405155
-4.9200248534  +8.5217330206  +7.5105405155
-4.9199508467  +9.9420001441  +7.5105405155
-2.4599756890  +8.5217330206  +7.5105405155
-2.4600491496  +9.9420001441  +7.5105405155
-0.0000739033  +8.5217330206  +7.5105405155
+0.0000000000  +9.9420001441  +7.5105405155
+2.4600491644  +9.9420001441  +7.5105405155
+4.9199509649  +9.9420001441  +7.5105405155
+7.3799257831  +8.5217330206  +7.5105405155
+7.3800005573  +9.9420001441  +7.5105405155
-6.1499753182  +10.6520697165  +7.5105405155
-6.1499017470  +12.0723375942  +7.5105405155
-3.6899261539  +10.6520697165  +7.5105405155
-3.6900000498  +12.0723375942  +7.5105405155
-1.2300243681  +10.6520697165  +7.5105405155
-1.2299509002  +12.0723375942  +7.5105405155
+1.2300247962  +10.6520697165  +7.5105405155
+1.2300982641  +12.0723375942  +7.5105405155
+3.6900743886  +10.6520697165  +7.5105405155
+3.6900000647  +12.0723375942  +7.5105405155
+6.1499753183  +10.6520697165  +7.5105405155
+6.1500496570  +12.0723375942  +7.5105405155
+2.4600491570  +5.6810700151  +7.5105405155
+4.9200983213  +5.6810700151  +7.5105405155
+2.4599752611  +8.5217330206  +7.5105405155
+4.9200248535  +8.5217330206  +7.5105405155
+3.8600348023  +6.9434733024  +7.5322325909
