

!-------------------- Magnetism --------------------!
ISPIN      = 2
# MAGMOM   = M*0 N*1

