Example POSCAR
1.0
+11.1738002301  +0.0000000000  +0.0000000000
 +0.0000000000 +11.1738002301  +0.0000000000
 +0.0000000000  +0.0000000000 +24.3113994598
Fe Pd
 81 27
Cartesian
 +1.8805977035  +0.7999226000  +1.2329352898
 +1.8923610619  +2.3307765496  +5.5248915598
 +1.8873466469  +1.7317683835 +10.2823627756
 +1.7317922332  +3.6743019948 +21.2554130098
 +1.8947890511  +0.4650385591  +3.8837424280
 +1.8897404285  +3.6495101740  +8.7018921852
 +3.6053674110  +2.6068200472 +22.5320549390
 +0.0339274898  +2.3512482842  +3.8171118264
 +0.0255595360  +1.7982819184  +8.5916603875
 +1.8805977035  +4.5245226767  +1.2329352898
 +1.8923610619  +6.0553766263  +5.5248915598
 +1.8873466469  +5.4563684602 +10.2823627756
 +1.7317922332  +7.3989020715 +21.2554130098
 +1.8947890511  +4.1896386358  +3.8837424280
 +1.8897404285  +7.3741102507  +8.7018921852
 +3.6053674110  +6.3314201239 +22.5320549390
 +0.0339274898  +6.0758483609  +3.8171118264
 +0.0255595360  +5.5228819951  +8.5916603875
 +1.8805977035  +8.2491227534  +1.2329352898
 +1.8923610619  +9.7799767030  +5.5248915598
 +1.8873466469  +9.1809685369 +10.2823627756
 +1.7317922332 +11.1235021482 +21.2554130098
 +1.8947890511  +7.9142387125  +3.8837424280
 +1.8897404285 +11.0987103274  +8.7018921852
 +3.6053674110 +10.0560202006 +22.5320549390
 +0.0339274898  +9.8004484376  +3.8171118264
 +0.0255595360  +9.2474820718  +8.5916603875
 +5.6051977802  +0.7999226000  +1.2329352898
 +5.6169611386  +2.3307765496  +5.5248915598
 +5.6119467236  +1.7317683835 +10.2823627756
 +5.4563923099  +3.6743019948 +21.2554130098
 +5.6193891278  +0.4650385591  +3.8837424280
 +5.6143405052  +3.6495101740  +8.7018921852
 +7.3299674877  +2.6068200472 +22.5320549390
 +3.7585275665  +2.3512482842  +3.8171118264
 +3.7501596127  +1.7982819184  +8.5916603875
 +5.6051977802  +4.5245226767  +1.2329352898
 +5.6169611386  +6.0553766263  +5.5248915598
 +5.6119467236  +5.4563684602 +10.2823627756
 +5.4563923099  +7.3989020715 +21.2554130098
 +5.6193891278  +4.1896386358  +3.8837424280
 +5.6143405052  +7.3741102507  +8.7018921852
 +7.3299674877  +6.3314201239 +22.5320549390
 +3.7585275665  +6.0758483609  +3.8171118264
 +3.7501596127  +5.5228819951  +8.5916603875
 +5.6051977802  +8.2491227534  +1.2329352898
 +5.6169611386  +9.7799767030  +5.5248915598
 +5.6119467236  +9.1809685369 +10.2823627756
 +5.4563923099 +11.1235021482 +21.2554130098
 +5.6193891278  +7.9142387125  +3.8837424280
 +5.6143405052 +11.0987103274  +8.7018921852
 +7.3299674877 +10.0560202006 +22.5320549390
 +3.7585275665  +9.8004484376  +3.8171118264
 +3.7501596127  +9.2474820718  +8.5916603875
 +9.3297978569  +0.7999226000  +1.2329352898
 +9.3415612153  +2.3307765496  +5.5248915598
 +9.3365468003  +1.7317683835 +10.2823627756
 +9.1809923866  +3.6743019948 +21.2554130098
 +9.3439892045  +0.4650385591  +3.8837424280
 +9.3389405819  +3.6495101740  +8.7018921852
+11.0545675644  +2.6068200472 +22.5320549390
 +7.4831276432  +2.3512482842  +3.8171118264
 +7.4747596894  +1.7982819184  +8.5916603875
 +9.3297978569  +4.5245226767  +1.2329352898
 +9.3415612153  +6.0553766263  +5.5248915598
 +9.3365468003  +5.4563684602 +10.2823627756
 +9.1809923866  +7.3989020715 +21.2554130098
 +9.3439892045  +4.1896386358  +3.8837424280
 +9.3389405819  +7.3741102507  +8.7018921852
+11.0545675644  +6.3314201239 +22.5320549390
 +7.4831276432  +6.0758483609  +3.8171118264
 +7.4747596894  +5.5228819951  +8.5916603875
 +9.3297978569  +8.2491227534  +1.2329352898
 +9.3415612153  +9.7799767030  +5.5248915598
 +9.3365468003  +9.1809685369 +10.2823627756
 +9.1809923866 +11.1235021482 +21.2554130098
 +9.3439892045  +7.9142387125  +3.8837424280
 +9.3389405819 +11.0987103274  +8.7018921852
+11.0545675644 +10.0560202006 +22.5320549390
 +7.4831276432  +9.8004484376  +3.8171118264
 +7.4747596894  +9.2474820718  +8.5916603875
 +3.7301646268  +2.6520863315  +0.8001021848
 +0.0265566082  +3.6266434544  +6.6807226066
 +0.0247975866  +0.3858022401 +11.1884789682
 +3.7301646268  +6.3766864082  +0.8001021848
 +0.0265566082  +7.3512435311  +6.6807226066
 +0.0247975866  +4.1104023168 +11.1884789682
 +3.7301646268 +10.1012864849  +0.8001021848
 +0.0265566082 +11.0758436078  +6.6807226066
 +0.0247975866  +7.8350023935 +11.1884789682
 +7.4547647035  +2.6520863315  +0.8001021848
 +3.7511566849  +3.6266434544  +6.6807226066
 +3.7493976633  +0.3858022401 +11.1884789682
 +7.4547647035  +6.3766864082  +0.8001021848
 +3.7511566849  +7.3512435311  +6.6807226066
 +3.7493976633  +4.1104023168 +11.1884789682
 +7.4547647035 +10.1012864849  +0.8001021848
 +3.7511566849 +11.0758436078  +6.6807226066
 +3.7493976633  +7.8350023935 +11.1884789682
+11.1793647802  +2.6520863315  +0.8001021848
 +7.4757567616  +3.6266434544  +6.6807226066
 +7.4739977400  +0.3858022401 +11.1884789682
+11.1793647802  +6.3766864082  +0.8001021848
 +7.4757567616  +7.3512435311  +6.6807226066
 +7.4739977400  +4.1104023168 +11.1884789682
+11.1793647802 +10.1012864849  +0.8001021848
 +7.4757567616 +11.0758436078  +6.6807226066
 +7.4739977400  +7.8350023935 +11.1884789682
