Graphene
1.0
       19.6800003052         0.0000000000         0.0000000000
        0.0000000000        22.7369995117         0.0000000000
        0.0000000000         0.0000000000        10.0000000000
    C
   64
Cartesian
     0.000000000         0.000000000         5.000000000
     2.460000038         1.641611371         5.000000000
     4.920000076         3.280949004         5.000000000
     7.380000114         4.922560375         5.000000000
     9.840000153         6.561898008         5.000000000
    12.300000191         8.203509379         5.000000000
    14.760000229         9.842847351         5.000000000
    17.220000267        11.484458722         5.000000000
     0.000000000         3.280949004         5.000000000
     2.460000038         4.922560375         5.000000000
     4.920000076         6.561898008         5.000000000
     7.380000114         8.203509379         5.000000000
     9.840000153         9.842847351         5.000000000
    12.300000191        11.484458722         5.000000000
    14.760000229        13.123796016         5.000000000
    17.220000267        14.765407388         5.000000000
     0.000000000         6.561898008         5.000000000
     2.460000038         8.203509379         5.000000000
     4.920000076         9.842847351         5.000000000
     7.380000114        11.484458722         5.000000000
     9.840000153        13.123796016         5.000000000
    12.300000191        14.765407388         5.000000000
    14.760000229        16.407018759         5.000000000
    17.220000267        18.046356053         5.000000000
     0.000000000         9.842847351         5.000000000
     2.460000038        11.484458722         5.000000000
     4.920000076        13.123796016         5.000000000
     7.380000114        14.765407388         5.000000000
     9.840000153        16.407018759         5.000000000
    12.300000191        18.046356053         5.000000000
    14.760000229        19.687967424         5.000000000
    17.220000267        21.327306073         5.000000000
     1.230000019         0.000000000         5.000000000
     3.690000057         1.641611371         5.000000000
     6.150000095         3.280949004         5.000000000
     8.610000134         4.922560375         5.000000000
    11.070000172         6.561898008         5.000000000
    13.530000210         8.203509379         5.000000000
    15.990000248         9.842847351         5.000000000
    18.450000286        11.484458722         5.000000000
     1.230000019         3.280949004         5.000000000
     3.690000057         4.922560375         5.000000000
     6.150000095         6.561898008         5.000000000
     8.610000134         8.203509379         5.000000000
    11.070000172         9.842847351         5.000000000
    13.530000210        11.484458722         5.000000000
    15.990000248        13.123796016         5.000000000
    18.450000286        14.765407388         5.000000000
     1.230000019         6.561898008         5.000000000
     3.690000057         8.203509379         5.000000000
     6.150000095         9.842847351         5.000000000
     8.610000134        11.484458722         5.000000000
    11.070000172        13.123796016         5.000000000
    13.530000210        14.765407388         5.000000000
    15.990000248        16.407018759         5.000000000
    18.450000286        18.046356053         5.000000000
     0.000000000         0.000000000         0.000000000
     0.000000000         0.000000000         0.000000000
     0.000000000         0.000000000         0.000000000
     0.000000000         0.000000000         0.000000000
     0.000000000         0.000000000         0.000000000
     0.000000000         0.000000000         0.000000000
     0.000000000         0.000000000         0.000000000
     0.000000000         0.000000000         0.000000000
