 C  N  H 
 1.0000000000000000
    19.6800003052000001    0.0000000000000000    0.0000000000000000
     0.0000000000000000   22.7369995116999988    0.0000000000000000
     0.0000000000000000    0.0000000000000000   11.8731535119464073
 C   N   H  
  64   1   3
Selective dynamics
Cartesian
  0.0000000000000000  0.0000000000000000  6.4215270397588782   F   F   F
  2.4600000380000000  1.6416113710000000  6.4215270397588782   F   F   F
  4.9200000760000000  3.2809490040000000  6.4215270397588782   F   F   F
  7.3800001140000004  4.9225603749999998  6.4215270397588782   F   F   F
  9.8400001530000001  6.5618980080000000  6.4215270397588782   F   F   F
 12.3000001910000005  8.2035093789999998  6.4215270397588782   F   F   F
 14.7600002289999992  9.8428473509999996  6.4215270397588782   F   F   F
 17.2200002669999996 11.4844587219999994  6.4215270397588782   F   F   F
  0.0000000000000000  3.2809490040000000  6.4215270397588782   F   F   F
  2.4600000380000000  4.9225603749999998  6.4215270397588782   F   F   F
  4.9200000760000000  6.5618980080000000  6.4215270397588782   F   F   F
  7.3800001140000004  8.2035093789999998  6.4215270397588782   F   F   F
  9.8400001530000001  9.8428473509999996  6.4215270397588782   F   F   F
 12.3000001910000005 11.4844587219999994  6.4215270397588782   F   F   F
 14.7600002289999992 13.1237960160000000  6.4215270397588782   F   F   F
 17.2200002669999996 14.7654073879999999  6.4215270397588782   F   F   F
  0.0000000000000000  6.5618980080000000  6.4215270397588782   F   F   F
  2.4600000380000000  8.2035093789999998  6.4215270397588782   F   F   F
  4.9200000760000000  9.8428473509999996  6.4215270397588782   F   F   F
  7.3800001140000004 11.4844587219999994  6.4215270397588782   F   F   F
  9.8400001530000001 13.1237960160000000  6.4215270397588782   F   F   F
 12.3000001910000005 14.7654073879999999  6.4215270397588782   F   F   F
 14.7600002289999992 16.4070187589999996  6.4215270397588782   F   F   F
 17.2200002669999996 18.0463560530000002  6.4215270397588782   F   F   F
  0.0000000000000000  9.8428473509999996  6.4215270397588782   F   F   F
  2.4600000380000000 11.4844587219999994  6.4215270397588782   F   F   F
  4.9200000760000000 13.1237960160000000  6.4215270397588782   F   F   F
  7.3800001140000004 14.7654073879999999  6.4215270397588782   F   F   F
  9.8400001530000001 16.4070187589999996  6.4215270397588782   F   F   F
 12.3000001910000005 18.0463560530000002  6.4215270397588782   F   F   F
 14.7600002289999992 19.6879674240000000  6.4215270397588782   F   F   F
 17.2200002669999996 21.3273060729999990  6.4215270397588782   F   F   F
  1.2300000190000000  0.0000000000000000  6.4215270397588782   F   F   F
  3.6900000570000002  1.6416113710000000  6.4215270397588782   F   F   F
  6.1500000950000002  3.2809490040000000  6.4215270397588782   F   F   F
  8.6100001339999999  4.9225603749999998  6.4215270397588782   F   F   F
 11.0700001720000003  6.5618980080000000  6.4215270397588782   F   F   F
 13.5300002100000007  8.2035093789999998  6.4215270397588782   F   F   F
 15.9900002479999994  9.8428473509999996  6.4215270397588782   F   F   F
 18.4500002860000016 11.4844587219999994  6.4215270397588782   F   F   F
  1.2300000190000000  3.2809490040000000  6.4215270397588782   F   F   F
  3.6900000570000002  4.9225603749999998  6.4215270397588782   F   F   F
  6.1500000950000002  6.5618980080000000  6.4215270397588782   F   F   F
  8.6100001339999999  8.2035093789999998  6.4215270397588782   F   F   F
 11.0700001720000003  9.8428473509999996  6.4215270397588782   F   F   F
 13.5300002100000007 11.4844587219999994  6.4215270397588782   F   F   F
 15.9900002479999994 13.1237960160000000  6.4215270397588782   F   F   F
 18.4500002860000016 14.7654073879999999  6.4215270397588782   F   F   F
  1.2300000190000000  6.5618980080000000  6.4215270397588782   F   F   F
  3.6900000570000002  8.2035093789999998  6.4215270397588782   F   F   F
  6.1500000950000002  9.8428473509999996  6.4215270397588782   F   F   F
  8.6100001339999999 11.4844587219999994  6.4215270397588782   F   F   F
 11.0700001720000003 13.1237960160000000  6.4215270397588782   F   F   F
 13.5300002100000007 14.7654073879999999  6.4215270397588782   F   F   F
 15.9900002479999994 16.4070187589999996  6.4215270397588782   F   F   F
 18.4500002860000016 18.0463560530000002  6.4215270397588782   F   F   F
  0.0000000000000000  0.0000000000000000  1.4215270397588782   F   F   F
  0.0000000000000000  0.0000000000000000  1.4215270397588782   F   F   F
  0.0000000000000000  0.0000000000000000  1.4215270397588782   F   F   F
  0.0000000000000000  0.0000000000000000  1.4215270397588782   F   F   F
  0.0000000000000000  0.0000000000000000  1.4215270397588782   F   F   F
  0.0000000000000000  0.0000000000000000  1.4215270397588782   F   F   F
  0.0000000000000000  0.0000000000000000  1.4215270397588782   F   F   F
  0.0000000000000000  0.0000000000000000  1.4215270397588782   F   F   F
  4.1000000633333329 11.4837006963333348  7.9115270397589317   T   T   T
  3.2090623897948309 11.1574649580612082  8.2946805517052855   T   T   T
  4.2861657390531525 12.4261947176841936  8.2658981601070654   T   T   T
  4.8446706241359649 10.8631370734904191  8.2373831100383903   T   T   T
