Si Crystal
1.0
2.715 0.0 0.0
0.0 2.715 0.0
0.0 0.0 2.715
Si
1
Direct
0.125 0.125 0.125

