 C 
 1.0000000000000000
     2.4600000000000000    0.0000000000000000    0.0000000000000000
    -1.2300000000000000    2.1304224933097191    0.0000000000000000
     0.0000000000000000    0.0000000000000000   11.0000000000000000
 C  
   2
Cartesian
  0.0000000000000000  0.7101408311032398  7.5000000000000000
  1.2300000000000000  1.4202816622064796  7.5000000000000000
