 C  N  O  H 
 1.0000000000000000
    19.6800003052000001    0.0000000000000000    0.0000000000000000
     0.0000000000000000   22.7369995116999988    0.0000000000000000
     0.0000000000000000    0.0000000000000000   13.3384222694000520
 C   N   O   H  
  64   1   1   3
Cartesian
  0.0000000000000000  0.0000000000000000  7.0893435965681393
  2.4600000380000000  1.6416113710000000  7.0893435965681393
  4.9200000760000000  3.2809490040000000  7.0893435965681393
  7.3800001140000004  4.9225603749999998  7.0893435965681393
  9.8400001530000001  6.5618980080000000  7.0893435965681393
 12.3000001910000005  8.2035093789999998  7.0893435965681393
 14.7600002289999992  9.8428473509999996  7.0893435965681393
 17.2200002669999996 11.4844587219999994  7.0893435965681393
  0.0000000000000000  3.2809490040000000  7.0893435965681393
  2.4600000380000000  4.9225603749999998  7.0893435965681393
  4.9200000760000000  6.5618980080000000  7.0893435965681393
  7.3800001140000004  8.2035093789999998  7.0893435965681393
  9.8400001530000001  9.8428473509999996  7.0893435965681393
 12.3000001910000005 11.4844587219999994  7.0893435965681393
 14.7600002289999992 13.1237960160000000  7.0893435965681393
 17.2200002669999996 14.7654073879999999  7.0893435965681393
  0.0000000000000000  6.5618980080000000  7.0893435965681393
  2.4600000380000000  8.2035093789999998  7.0893435965681393
  4.9200000760000000  9.8428473509999996  7.0893435965681393
  7.3800001140000004 11.4844587219999994  7.0893435965681393
  9.8400001530000001 13.1237960160000000  7.0893435965681393
 12.3000001910000005 14.7654073879999999  7.0893435965681393
 14.7600002289999992 16.4070187589999996  7.0893435965681393
 17.2200002669999996 18.0463560530000002  7.0893435965681393
  0.0000000000000000  9.8428473509999996  7.0893435965681393
  2.4600000380000000 11.4844587219999994  7.0893435965681393
  4.9200000760000000 13.1237960160000000  7.0893435965681393
  7.3800001140000004 14.7654073879999999  7.0893435965681393
  9.8400001530000001 16.4070187589999996  7.0893435965681393
 12.3000001910000005 18.0463560530000002  7.0893435965681393
 14.7600002289999992 19.6879674240000000  7.0893435965681393
 17.2200002669999996 21.3273060729999990  7.0893435965681393
  1.2300000190000000  0.0000000000000000  7.0893435965681393
  3.6900000570000002  1.6416113710000000  7.0893435965681393
  6.1500000950000002  3.2809490040000000  7.0893435965681393
  8.6100001339999999  4.9225603749999998  7.0893435965681393
 11.0700001720000003  6.5618980080000000  7.0893435965681393
 13.5300002100000007  8.2035093789999998  7.0893435965681393
 15.9900002479999994  9.8428473509999996  7.0893435965681393
 18.4500002860000016 11.4844587219999994  7.0893435965681393
  1.2300000190000000  3.2809490040000000  7.0893435965681393
  3.6900000570000002  4.9225603749999998  7.0893435965681393
  6.1500000950000002  6.5618980080000000  7.0893435965681393
  8.6100001339999999  8.2035093789999998  7.0893435965681393
 11.0700001720000003  9.8428473509999996  7.0893435965681393
 13.5300002100000007 11.4844587219999994  7.0893435965681393
 15.9900002479999994 13.1237960160000000  7.0893435965681393
 18.4500002860000016 14.7654073879999999  7.0893435965681393
  1.2300000190000000  6.5618980080000000  7.0893435965681393
  3.6900000570000002  8.2035093789999998  7.0893435965681393
  6.1500000950000002  9.8428473509999996  7.0893435965681393
  8.6100001339999999 11.4844587219999994  7.0893435965681393
 11.0700001720000003 13.1237960160000000  7.0893435965681393
 13.5300002100000007 14.7654073879999999  7.0893435965681393
 15.9900002479999994 16.4070187589999996  7.0893435965681393
 18.4500002860000016 18.0463560530000002  7.0893435965681393
  0.0000000000000000  0.0000000000000000  2.0893435965681393
  0.0000000000000000  0.0000000000000000  2.0893435965681393
  0.0000000000000000  0.0000000000000000  2.0893435965681393
  0.0000000000000000  0.0000000000000000  2.0893435965681393
  0.0000000000000000  0.0000000000000000  2.0893435965681393
  0.0000000000000000  0.0000000000000000  2.0893435965681393
  0.0000000000000000  0.0000000000000000  2.0893435965681393
  0.0000000000000000  0.0000000000000000  2.0893435965681393
  4.1000000633333329 11.4837006963333348  8.6893435965681896
  3.9204130349333326 12.5738557489333349  9.6739827895681891
  4.7097123688333333 12.7765662988333339 10.4277658659681904
  5.0771949112333328 10.9864888228333335  8.8615954213681896
  3.2820564807333326 10.7422369579333346  8.8048904404681885
