 C 
 1.0000000000000000
     2.4600000000000000    0.0000000000000000    0.0000000000000000
    -1.2300000000000000   12.1304224933097196    0.0000000000000000
     0.0000000000000000    0.0000000000000000    1.0000000000000000
 C  
   2
Cartesian
  0.0000000000000000 11.4202816622064809  0.5000000000000000
  1.2300000000000000 12.1304224933097196  0.5000000000000000
