 C  N  O  H 
 1.0000000000000000
    19.6800003052000001    0.0000000000000000    0.0000000000000000
     0.0000000000000000   22.7369995116999988    0.0000000000000000
     0.0000000000000000    0.0000000000000000   13.9028656025000306
 C   N   O   H  
  64   1   1   3
Selective dynamics
Cartesian
  0.0000000000000000  0.0000000000000000  7.3254278006239266   F   F   F
  2.4600000380000000  1.6416113710000000  7.3254278006239266   F   F   F
  4.9200000760000000  3.2809490040000000  7.3254278006239266   F   F   F
  7.3800001140000004  4.9225603749999998  7.3254278006239266   F   F   F
  9.8400001530000001  6.5618980080000000  7.3254278006239266   F   F   F
 12.3000001910000005  8.2035093789999998  7.3254278006239266   F   F   F
 14.7600002289999992  9.8428473509999996  7.3254278006239266   F   F   F
 17.2200002669999996 11.4844587219999994  7.3254278006239266   F   F   F
  0.0000000000000000  3.2809490040000000  7.3254278006239266   F   F   F
  2.4600000380000000  4.9225603749999998  7.3254278006239266   F   F   F
  4.9200000760000000  6.5618980080000000  7.3254278006239266   F   F   F
  7.3800001140000004  8.2035093789999998  7.3254278006239266   F   F   F
  9.8400001530000001  9.8428473509999996  7.3254278006239266   F   F   F
 12.3000001910000005 11.4844587219999994  7.3254278006239266   F   F   F
 14.7600002289999992 13.1237960160000000  7.3254278006239266   F   F   F
 17.2200002669999996 14.7654073879999999  7.3254278006239266   F   F   F
  0.0000000000000000  6.5618980080000000  7.3254278006239266   F   F   F
  2.4600000380000000  8.2035093789999998  7.3254278006239266   F   F   F
  4.9200000760000000  9.8428473509999996  7.3254278006239266   F   F   F
  7.3800001140000004 11.4844587219999994  7.3254278006239266   F   F   F
  9.8400001530000001 13.1237960160000000  7.3254278006239266   F   F   F
 12.3000001910000005 14.7654073879999999  7.3254278006239266   F   F   F
 14.7600002289999992 16.4070187589999996  7.3254278006239266   F   F   F
 17.2200002669999996 18.0463560530000002  7.3254278006239266   F   F   F
  0.0000000000000000  9.8428473509999996  7.3254278006239266   F   F   F
  2.4600000380000000 11.4844587219999994  7.3254278006239266   F   F   F
  4.9200000760000000 13.1237960160000000  7.3254278006239266   F   F   F
  7.3800001140000004 14.7654073879999999  7.3254278006239266   F   F   F
  9.8400001530000001 16.4070187589999996  7.3254278006239266   F   F   F
 12.3000001910000005 18.0463560530000002  7.3254278006239266   F   F   F
 14.7600002289999992 19.6879674240000000  7.3254278006239266   F   F   F
 17.2200002669999996 21.3273060729999990  7.3254278006239266   F   F   F
  1.2300000190000000  0.0000000000000000  7.3254278006239266   F   F   F
  3.6900000570000002  1.6416113710000000  7.3254278006239266   F   F   F
  6.1500000950000002  3.2809490040000000  7.3254278006239266   F   F   F
  8.6100001339999999  4.9225603749999998  7.3254278006239266   F   F   F
 11.0700001720000003  6.5618980080000000  7.3254278006239266   F   F   F
 13.5300002100000007  8.2035093789999998  7.3254278006239266   F   F   F
 15.9900002479999994  9.8428473509999996  7.3254278006239266   F   F   F
 18.4500002860000016 11.4844587219999994  7.3254278006239266   F   F   F
  1.2300000190000000  3.2809490040000000  7.3254278006239266   F   F   F
  3.6900000570000002  4.9225603749999998  7.3254278006239266   F   F   F
  6.1500000950000002  6.5618980080000000  7.3254278006239266   F   F   F
  8.6100001339999999  8.2035093789999998  7.3254278006239266   F   F   F
 11.0700001720000003  9.8428473509999996  7.3254278006239266   F   F   F
 13.5300002100000007 11.4844587219999994  7.3254278006239266   F   F   F
 15.9900002479999994 13.1237960160000000  7.3254278006239266   F   F   F
 18.4500002860000016 14.7654073879999999  7.3254278006239266   F   F   F
  1.2300000190000000  6.5618980080000000  7.3254278006239266   F   F   F
  3.6900000570000002  8.2035093789999998  7.3254278006239266   F   F   F
  6.1500000950000002  9.8428473509999996  7.3254278006239266   F   F   F
  8.6100001339999999 11.4844587219999994  7.3254278006239266   F   F   F
 11.0700001720000003 13.1237960160000000  7.3254278006239266   F   F   F
 13.5300002100000007 14.7654073879999999  7.3254278006239266   F   F   F
 15.9900002479999994 16.4070187589999996  7.3254278006239266   F   F   F
 18.4500002860000016 18.0463560530000002  7.3254278006239266   F   F   F
  0.0000000000000000  0.0000000000000000  2.3254278006239266   F   F   F
  0.0000000000000000  0.0000000000000000  2.3254278006239266   F   F   F
  0.0000000000000000  0.0000000000000000  2.3254278006239266   F   F   F
  0.0000000000000000  0.0000000000000000  2.3254278006239266   F   F   F
  0.0000000000000000  0.0000000000000000  2.3254278006239266   F   F   F
  0.0000000000000000  0.0000000000000000  2.3254278006239266   F   F   F
  0.0000000000000000  0.0000000000000000  2.3254278006239266   F   F   F
  0.0000000000000000  0.0000000000000000  2.3254278006239266   F   F   F
  4.1000000633333329 11.4837006963333366  9.9354278006239554   T   T   T
  3.9204130349333326 10.4990615033333370 11.0255828532239555   T   T   T
  4.7097123688333316  9.7452784269333357 11.2282934031239563   T   T   T
  5.0771949112333310 11.3114488715333366  9.4382159271239559   T   T   T
  3.2820564807333321 11.3681538524333376  9.1939640622239551   T   T   T
