ALGO = Fast
ISMEAR = 0
SIGMA = 0.05
NSW = 100
