  # A legal INCAR for testing
  ! Testing INCAR

  ALGO  = Normal # alorithm for electron optimization
  ISMEAR= 0 ; SIGMA = 0.05   ! width of the smearing in eV
  NSW = 100
