 C 
 1.0000000000000000
     5.0000000000000000    0.0000000000000000    0.0000000000000000
     0.0000000000000000    5.0000000000000000    0.0000000000000000
     0.0000000000000000    0.0000000000000000    5.0000000000000000
 C  
   3
Cartesian
  1.0000000000000000  1.0000000000000000  1.0000000000000000
  2.0000000000000000  2.0000000000000000  2.0000000000000000
  3.0000000000000000  3.0000000000000000  3.0000000000000000
