Test POSCAR
1.0
 5.0 0.0 0.0
 0.0 5.0 0.0
 0.0 0.0 5.0
C
3
Direct
0.2 0.2 0.2
0.4 0.4 0.4
0.6 0.6 0.6
