Test POSCAR
1.0
 5.0 0.0 0.0
 0.0 5.0 0.0
 0.0 0.0 5.0
C
3
Cartesian
1.0 1.0 1.0
2.0 2.0 2.0
3.0 3.0 3.0
