 C 
 1.0000000000000000
     5.0000000000000000    0.0000000000000000    0.0000000000000000
     0.0000000000000000    5.0000000000000000    0.0000000000000000
     0.0000000000000000    0.0000000000000000    5.0000000000000000
 C  
   3
Direct
  0.2000000000000000  0.2000000000000000  0.2000000000000000
  0.4000000000000000  0.4000000000000000  0.4000000000000000
  0.6000000000000000  0.6000000000000000  0.6000000000000000
