CONTCAR\(1\1\1)                         
   1.00000000000000     
     9.4299799846999992    1.7799177810000000   -0.0010510033000000
     2.8289922243999999   11.4895261379000004    0.0237551899000000
     0.0000000000000000    0.0000000000000000   23.7776936222999993
   Fe   Pd
    51    29
Direct
  0.6194821329347135 -0.0000717924678878  0.3737463754086822
  0.3733631380666004  0.1690874593376983  0.4321428376505048
  0.3631254578748475  0.1515175764010900  0.5471947578840756
  0.5994836578075289  0.0978908612907240  0.5018045295157282
  0.7109899034083427  0.8869172920803338  0.4669351882559959
  0.2618136167807820  0.5356168307024949  0.3029925865001021
  0.6292538259121848  0.7229664896674989  0.4972053765071710
  0.0581476870448938  0.4712143926867225  0.3100472521235466
  0.4987958782534584  0.6269606971686564  0.4445190591574917
  0.6593001425235988  0.3907374014308252  0.4016236738182549
  0.5036482110061590  0.3791379244061480  0.3177023677005494
  0.2847463651554674  0.3661937146288472  0.3777952050777759
  0.0212365989489980  0.4588499641775213  0.4116099397098210
  0.4448690488402575  0.1773503036382951  0.3199754575078833
  0.9201777975705960  0.3283075887635105  0.4578611529274904
  0.2470502138899667  0.1266106885982034  0.2728393413260173
  0.5478827029309334  0.2899760869395016  0.5712031218915987
  0.9938600978439681  0.1610842306871808  0.2998419076379750
  0.4159511397901263  0.3451169437922262  0.4846394267629112
  0.9185397121992285  0.9723083651889469  0.3138780816000922
  0.1725626700984698  0.3228852269233112  0.4810314799668244
  0.4881331717771409  0.9503191943591764  0.2872859369808484
  0.3464652965817776  0.0216531145061029  0.3690545933213030
  0.0959731249383028  0.0312612862961531  0.3845294432766953
  0.8543270318015591  0.8146442132099476  0.3738028226576537
  0.3296531814667461  0.6853308062379360  0.3491252117678549
  0.8507342194170388  0.9489633279145464  0.5412618577371640
  0.1048126999518784  0.6208687996677388  0.3901760685017209
  0.3748122251766904  0.7781257399237254  0.5332734833327216
  0.0608141223650864  0.7382196658568366  0.2994515772380374
  0.1288949783131086  0.7579376256164850  0.5628153647924914
  0.6012774524409338  0.5542496556520817  0.3374953131939080
  0.3850078300578301  0.5004799238259898  0.4103168750078089
  0.8636056179724354  0.6628020134109452  0.4482401171808937
  0.7529177784597922  0.5354829854357007  0.4272879832811886
  0.2817381919756218  0.3389876240925305  0.2608961566775527
  0.6438876738229434  0.4298514145213017  0.5017435880590259
  0.7262580201812600  0.1842871019463379  0.3125971133252080
  0.8912741671487222  0.4939165767114764  0.5254584564049232
  0.1378477946358072  0.2377328479160739  0.3684484828611377
  0.8772011602994552  0.1987014165646186  0.3945043360021838
  0.1445761140981126  0.1276578665419789  0.4681872325054609
  0.5153396266139993  0.7408516780329529  0.2808749956322432
  0.0871267754750819  0.8392788176367462  0.3878022959444689
  0.8462277410413299  0.0077868665892547  0.4272598103077957
  0.3218686223059726  0.8452112272216317  0.4158570683231665
  0.2430686518964808  0.7021223947897178  0.4617130009293930
  0.9811682017771916  0.7864599472902851  0.4719230824011078
  0.8391051284579717  0.6213907505116910  0.3458557486750584
  0.3856697927169849  0.5509428770590193  0.5333399989961032
  0.8704827465974868  0.3880129980403481  0.3392720367205150
  0.5411619732392480  0.2609227576260341  0.2228828430583767
  0.6157911992730222  0.5960958716066759  0.5786327601578766
  0.5989511463658748  0.2127784626325178  0.4093303760750800
  0.2509507375611933  0.0008752694504764  0.5741081786881136
  0.7654305643098994  0.7883273871589431  0.2697707676218228
  0.5902356099100059  0.7850648886486090  0.3825014505397850
  0.4571430568984881  0.5628205057309414  0.2429215292258086
  0.8609614742154087  0.7145570659074317  0.5565670809757870
  0.6731517324077927  0.0279878609096441  0.2545239621451113
  0.0479244882107453  0.2544688768165070  0.5612482173597206
  0.9670111840863693  0.8643726299500987  0.2155883536524204
  0.6568849943913199  0.0841777930480303  0.6121542038551364
  0.4282885093264792  0.9599735409788349  0.4765185191667552
  0.0495484615981012  0.5926860078996988  0.2226180576976323
  0.5792925294408483  0.9039857460881322  0.5728471144199790
  0.1316108849093678  0.5484964146613729  0.4986948912669011
  0.0295488053999321  0.3264768512480208  0.2371529769975370
  0.4358853680458829  0.4842557142336847  0.6299268431354105
  0.8829587413668947  0.1134098935952086  0.2169740269058913
  0.2567621072813818  0.3725080169294404  0.5797637224176203
  0.8115218598100450  0.1832803859958592  0.5038747279041290
  0.7584487877052551  0.3460700903662506  0.5984881844450054
  0.2268961973441852  0.9044351007975330  0.2967104118952153
  0.7336885744786523  0.3586036314240999  0.2500621199801867
  0.1107913868269357  0.5975300799169972  0.6228058339147801
  0.0982869939560615  0.9412042455513071  0.4922468937421900
  0.9540106073346705  0.0732431077788453  0.6005417480999767
  0.7810475319238842  0.5615845570911688  0.2502142271310698
  0.9190155087323256  0.8569781196614205  0.6363268931239944
 
  0.00000000E+00  0.00000000E+00  0.00000000E+00
  0.00000000E+00  0.00000000E+00  0.00000000E+00
  0.00000000E+00  0.00000000E+00  0.00000000E+00
  0.00000000E+00  0.00000000E+00  0.00000000E+00
  0.00000000E+00  0.00000000E+00  0.00000000E+00
  0.00000000E+00  0.00000000E+00  0.00000000E+00
  0.00000000E+00  0.00000000E+00  0.00000000E+00
  0.00000000E+00  0.00000000E+00  0.00000000E+00
  0.00000000E+00  0.00000000E+00  0.00000000E+00
  0.00000000E+00  0.00000000E+00  0.00000000E+00
  0.00000000E+00  0.00000000E+00  0.00000000E+00
  0.00000000E+00  0.00000000E+00  0.00000000E+00
  0.00000000E+00  0.00000000E+00  0.00000000E+00
  0.00000000E+00  0.00000000E+00  0.00000000E+00
  0.00000000E+00  0.00000000E+00  0.00000000E+00
  0.00000000E+00  0.00000000E+00  0.00000000E+00
  0.00000000E+00  0.00000000E+00  0.00000000E+00
  0.00000000E+00  0.00000000E+00  0.00000000E+00
  0.00000000E+00  0.00000000E+00  0.00000000E+00
  0.00000000E+00  0.00000000E+00  0.00000000E+00
  0.00000000E+00  0.00000000E+00  0.00000000E+00
  0.00000000E+00  0.00000000E+00  0.00000000E+00
  0.00000000E+00  0.00000000E+00  0.00000000E+00
  0.00000000E+00  0.00000000E+00  0.00000000E+00
  0.00000000E+00  0.00000000E+00  0.00000000E+00
  0.00000000E+00  0.00000000E+00  0.00000000E+00
  0.00000000E+00  0.00000000E+00  0.00000000E+00
  0.00000000E+00  0.00000000E+00  0.00000000E+00
  0.00000000E+00  0.00000000E+00  0.00000000E+00
  0.00000000E+00  0.00000000E+00  0.00000000E+00
  0.00000000E+00  0.00000000E+00  0.00000000E+00
  0.00000000E+00  0.00000000E+00  0.00000000E+00
  0.00000000E+00  0.00000000E+00  0.00000000E+00
  0.00000000E+00  0.00000000E+00  0.00000000E+00
  0.00000000E+00  0.00000000E+00  0.00000000E+00
  0.00000000E+00  0.00000000E+00  0.00000000E+00
  0.00000000E+00  0.00000000E+00  0.00000000E+00
  0.00000000E+00  0.00000000E+00  0.00000000E+00
  0.00000000E+00  0.00000000E+00  0.00000000E+00
  0.00000000E+00  0.00000000E+00  0.00000000E+00
  0.00000000E+00  0.00000000E+00  0.00000000E+00
  0.00000000E+00  0.00000000E+00  0.00000000E+00
  0.00000000E+00  0.00000000E+00  0.00000000E+00
  0.00000000E+00  0.00000000E+00  0.00000000E+00
  0.00000000E+00  0.00000000E+00  0.00000000E+00
  0.00000000E+00  0.00000000E+00  0.00000000E+00
  0.00000000E+00  0.00000000E+00  0.00000000E+00
  0.00000000E+00  0.00000000E+00  0.00000000E+00
  0.00000000E+00  0.00000000E+00  0.00000000E+00
  0.00000000E+00  0.00000000E+00  0.00000000E+00
  0.00000000E+00  0.00000000E+00  0.00000000E+00
  0.00000000E+00  0.00000000E+00  0.00000000E+00
  0.00000000E+00  0.00000000E+00  0.00000000E+00
  0.00000000E+00  0.00000000E+00  0.00000000E+00
  0.00000000E+00  0.00000000E+00  0.00000000E+00
  0.00000000E+00  0.00000000E+00  0.00000000E+00
  0.00000000E+00  0.00000000E+00  0.00000000E+00
  0.00000000E+00  0.00000000E+00  0.00000000E+00
  0.00000000E+00  0.00000000E+00  0.00000000E+00
  0.00000000E+00  0.00000000E+00  0.00000000E+00
  0.00000000E+00  0.00000000E+00  0.00000000E+00
  0.00000000E+00  0.00000000E+00  0.00000000E+00
  0.00000000E+00  0.00000000E+00  0.00000000E+00
  0.00000000E+00  0.00000000E+00  0.00000000E+00
  0.00000000E+00  0.00000000E+00  0.00000000E+00
  0.00000000E+00  0.00000000E+00  0.00000000E+00
  0.00000000E+00  0.00000000E+00  0.00000000E+00
  0.00000000E+00  0.00000000E+00  0.00000000E+00
  0.00000000E+00  0.00000000E+00  0.00000000E+00
  0.00000000E+00  0.00000000E+00  0.00000000E+00
  0.00000000E+00  0.00000000E+00  0.00000000E+00
  0.00000000E+00  0.00000000E+00  0.00000000E+00
  0.00000000E+00  0.00000000E+00  0.00000000E+00
  0.00000000E+00  0.00000000E+00  0.00000000E+00
  0.00000000E+00  0.00000000E+00  0.00000000E+00
  0.00000000E+00  0.00000000E+00  0.00000000E+00
  0.00000000E+00  0.00000000E+00  0.00000000E+00
  0.00000000E+00  0.00000000E+00  0.00000000E+00
  0.00000000E+00  0.00000000E+00  0.00000000E+00
  0.00000000E+00  0.00000000E+00  0.00000000E+00
