POSCAR_generated\(3)
1.0
+14.9048995972  +0.0000000000  +0.0000000000
-7.4524482383  +12.7301199628  +0.0000000000
+0.0000000000  +0.0000000000  +22.2667999268
C  N  Fe  O
66  5  5  1
Selective Dynamics
Direct
+0.0000666772  +0.9977971722  +0.4866646645  T  T  T
+0.0561072030  +0.1099204276  +0.4868450073  T  T  T
+0.1691898539  +0.0017583137  +0.4861175616  T  T  T
+0.2254194395  +0.1139536526  +0.4873090247  T  T  T
+0.3347758852  +0.0018045316  +0.4855220929  T  T  T
+0.3907783749  +0.1140276530  +0.4864238331  T  T  T
+0.4999525542  +0.9980909843  +0.4860471198  T  T  T
+0.5560587064  +0.1102087109  +0.4856490439  T  T  T
+0.6653773078  +0.9939135803  +0.4874315743  T  T  T
+0.7212740129  +0.1060219130  +0.4859512033  T  T  T
+0.8309042314  +0.9939151994  +0.4875728606  T  T  T
+0.8870638948  +0.1061042870  +0.4864529628  T  T  T
+0.9985469103  +0.1629463902  +0.4862982188  T  T  T
+0.0538549301  +0.2745858211  +0.4853592259  T  T  T
+0.1679669588  +0.1673201701  +0.4873598305  T  T  T
+0.2231924118  +0.2792565166  +0.4879742750  T  T  T
+0.3371202194  +0.1719281587  +0.4876419666  T  T  T
+0.3941426691  +0.2859208278  +0.4890093821  T  T  T
+0.5015831484  +0.1676617473  +0.4858119157  T  T  T
+0.5582511990  +0.2796506762  +0.4855527450  T  T  T
+0.6665737034  +0.1629979219  +0.4851255328  T  T  T
+0.7228986993  +0.2746261832  +0.4839486759  T  T  T
+0.8321081934  +0.1619035421  +0.4855231116  T  T  T
+0.8880604658  +0.2738986401  +0.4839989198  T  T  T
+0.9984506267  +0.3299446808  +0.4837350357  T  T  T
+0.0537347933  +0.4415307146  +0.4822748616  T  T  T
+0.1642457694  +0.3310200260  +0.4862303724  T  T  T
+0.2179128460  +0.4423469726  +0.4848725470  T  T  T
+0.3351587191  +0.3389435844  +0.4904338708  T  T  T
+0.5065654894  +0.3402383969  +0.4874501275  T  T  T
+0.6689282862  +0.3311986881  +0.4841636334  T  T  T
+0.7265335697  +0.4425132043  +0.4837494784  T  T  T
+0.8336532941  +0.3299792770  +0.4831523228  T  T  T
+0.8899119141  +0.4415416341  +0.4821168375  T  T  T
+0.9999837692  +0.4977650626  +0.4816235734  T  T  T
+0.0560901868  +0.6098580617  +0.4814304358  T  T  T
+0.1637484680  +0.4981066452  +0.4824530932  T  T  T
+0.2194064305  +0.6094380419  +0.4820288190  T  T  T
+0.3267600490  +0.4980537805  +0.4875330513  T  T  T
+0.3819925614  +0.6090945172  +0.4861673189  T  T  T
+0.6727048704  +0.4978019331  +0.4858839914  T  T  T
+0.7292362123  +0.6093205471  +0.4873382359  T  T  T
+0.8364825128  +0.4981273293  +0.4824827554  T  T  T
+0.8923321754  +0.6094483772  +0.4826545670  T  T  T
+0.0023161963  +0.6661139993  +0.4821048788  T  T  T
+0.0576157965  +0.7776896024  +0.4833200323  T  T  T
+0.1660380083  +0.6660995644  +0.4816948885  T  T  T
+0.2223236115  +0.7777466659  +0.4827784656  T  T  T
+0.3292440168  +0.6651110297  +0.4835657089  T  T  T
+0.3869399541  +0.7767734873  +0.4846577433  T  T  T
+0.5498980357  +0.7690217873  +0.4901464054  T  T  T
+0.7211151724  +0.7682132120  +0.4895289451  T  T  T
+0.8381696756  +0.6650720902  +0.4848400327  T  T  T
+0.8919044299  +0.7765411837  +0.4857040244  T  T  T
+0.0022594158  +0.8331124652  +0.4848644624  T  T  T
+0.0576309561  +0.9448199555  +0.4859365396  T  T  T
+0.1680538521  +0.8338445375  +0.4835667143  T  T  T
+0.2240735198  +0.9459066011  +0.4851066950  T  T  T
+0.3330825691  +0.8332381116  +0.4839938666  T  T  T
+0.3894000612  +0.9449318922  +0.4851965014  T  T  T
+0.4974071273  +0.8289160024  +0.4873648089  T  T  T
+0.5543909188  +0.9406880811  +0.4871327271  T  T  T
+0.6627493924  +0.8221234647  +0.4900550500  T  T  T
+0.7194014775  +0.9361517738  +0.4885621553  T  T  T
+0.8329895303  +0.8283619416  +0.4872364050  T  T  T
+0.8881852418  +0.9403572122  +0.4871095240  T  T  T
+0.3851237862  +0.4486621442  +0.4937633353  T  T  T
+0.5657910027  +0.4487766415  +0.4882206514  T  T  T
+0.4899289400  +0.6585135015  +0.4898986700  T  T  T
+0.6714591395  +0.6587546875  +0.4922164164  T  T  T
+0.3890656762  +0.4627996863  +0.6708646519  T  T  T
+0.5282976770  +0.5532102520  +0.4982357728  T  T  T
+0.6175267696  +0.6015412630  +0.5931944094  T  T  T
+0.5241343581  +0.6809276417  +0.5811361469  T  T  T
+0.4310841289  +0.4869203112  +0.5934848361  T  T  T
+0.5065711340  +0.5938618700  +0.6730529324  T  T  T
+0.3338080446  +0.4049329526  +0.7105062955  T  T  T
