Si diamond structure
1.0
  0.0 2.72 2.72
  2.72 0.0 2.72
  2.72 2.72 0.0
Si
1
Direct
  0.0 0.0 0.0