 C 
 1.0000000000000000
    12.4600000000000009    0.0000000000000000    0.0000000000000000
    -1.2300000000000000    2.1304224933097191    0.0000000000000000
     0.0000000000000000    0.0000000000000000    1.0000000000000000
 C  
   2
Cartesian
  7.0000000000000000  0.7101408311032398  0.5000000000000000
  8.2300000000000004  1.4202816622064796  0.5000000000000000
