MgO Crystal
1.0
4.2 0.0 0.0
0.0 4.2 0.0
0.0 0.0 4.2
Mg O
1 1
Direct
0.0 0.0 0.0
0.5 0.5 0.5
